Problem:    
Rows:       260
Columns:    89 (72 integer, 72 binary)
Non-zeros:  812
Status:     INTEGER OPTIMAL
Objective:  value = 52.431047 (MINimum)

   No.   Row name        Activity     Lower bound   Upper bound
------ ------------    ------------- ------------- -------------
     1 r.5                    52.431             0               
     2 r.6                  -983.087      -983.395               
     3 r.7                   1052.43             0               
     4 r.8                  -978.516      -978.824               
     5 r.9                   1052.43             0               
     6 r.10                 -970.728      -983.385               
     7 r.11                   52.431             0               
     8 r.12                   29.272      -978.916               
     9 r.13                  1052.43             0               
    10 r.14                 -990.594      -999.569               
    11 r.15                   52.431             0               
    12 r.16                  21.4836      -999.161               
    13 r.17                  1052.43             0               
    14 r.18                 -991.025      -999.343               
    15 r.19                   52.431             0               
    16 r.20                   29.272      -998.861               
    17 r.21                  1052.43             0               
    18 r.22                 -991.682       -991.99               
    19 r.23                   52.431             0               
    20 r.24                  21.4836      -989.981               
    21 r.25                  1052.43             0               
    22 r.26                 -999.692      -999.692               
    23 r.27                   52.431             0               
    24 r.28                   0.3081      -999.558               
    25 r.29                  1052.43             0               
    26 r.30                 -947.569      -976.841               
    27 r.31                   52.431             0               
    28 r.32                   52.431      -968.255               
    29 r.33                   52.431             0               
    30 r.34                   52.431      -976.998               
    31 r.35                  1052.43             0               
    32 r.36                 -947.569      -969.053               
    33 r.37                        1             1             = 
    34 r.38                        1             1             = 
    35 r.39                        1             1             = 
    36 r.40                        1             1             = 
    37 r.41                        1             1             = 
    38 r.42                        1             1             = 
    39 r.43                        1             1             = 
    40 r.44                        1             1             = 
    41 r.45                     1001             2               
    42 r.46                    -1001         -1001               
    43 r.47                  3012.36      -983.385               
    44 r.48                     1001             2               
    45 r.49                    -1001         -1001               
    46 r.50                  2007.79      -978.916               
    47 r.51                     1001             2               
    48 r.52                    -1001         -1001               
    49 r.53                  2992.49      -999.569               
    50 r.54                     1001             2               
    51 r.55                    -1001         -1001               
    52 r.56                     2000      -999.161               
    53 r.57                     1001             2               
    54 r.58                    -1001         -1001               
    55 r.59                  2992.06      -999.343               
    56 r.60                     1001             2               
    57 r.61                    -1001         -1001               
    58 r.62                  2007.79      -998.861               
    59 r.63                     1001             2               
    60 r.64                    -1001         -1001               
    61 r.65                   2991.4       -991.99               
    62 r.66                     1001             2               
    63 r.67                    -1001         -1001               
    64 r.68                     2000      -989.981               
    65 r.69                 -983.395      -983.395               
    66 r.70                 -978.824      -978.824               
    67 r.71                 -983.395      -983.395               
    68 r.72                 -978.824      -978.824               
    69 r.73                   35.518      -976.841               
    70 r.74                  1035.52      -968.255               
    71 r.75                 -969.053      -976.841               
    72 r.76                  30.9474      -968.255               
    73 r.77                  1035.52      -976.998               
    74 r.78                   35.518      -969.053               
    75 r.79                  30.9474      -976.998               
    76 r.80                 -969.053      -969.053               
    77 r.81                     1001             2               
    78 r.82                    -1001         -1001               
    79 r.83                  987.641        16.605               
    80 r.84                     1001             2               
    81 r.85                    -1001         -1001               
    82 r.86                  1992.21       21.1755               
    83 r.87                        2             2               
    84 r.88                       -2         -1001               
    85 r.89                 -19.8664      -999.569               
    86 r.90                     1000             2               
    87 r.91                    -1000         -1001               
    88 r.92                  1992.21      -999.161               
    89 r.93                        2             2               
    90 r.94                       -2         -1001               
    91 r.95                  -20.297      -999.343               
    92 r.96                     1000             2               
    93 r.97                    -1000         -1001               
    94 r.98                     2000      -998.861               
    95 r.99                        2             2               
    96 r.100                      -2         -1001               
    97 r.101                 -20.954       -991.99               
    98 r.102                    1000             2               
    99 r.103                   -1000         -1001               
   100 r.104                 1992.21      -989.981               
   101 r.105                -971.036      -983.385               
   102 r.106                 28.9639      -978.916               
   103 r.107                -971.036      -983.385               
   104 r.108                 28.9639      -978.916               
   105 r.109                -976.841      -976.841               
   106 r.110                  23.159      -968.255               
   107 r.111                -976.841      -976.841               
   108 r.112                  23.159      -968.255               
   109 r.113                    1001             2               
   110 r.114                   -1001         -1001               
   111 r.115                 2023.16      -976.998               
   112 r.116                    1001             2               
   113 r.117                   -1001         -1001               
   114 r.118                 2023.16      -969.053               
   115 r.119                    1001             2               
   116 r.120                   -1001         -1001               
   117 r.121                 1007.51        16.605               
   118 r.122                    1001             2               
   119 r.123                   -1001         -1001               
   120 r.124                    2000       21.1755               
   121 r.125                       2             2               
   122 r.126                      -2         -1001               
   123 r.127                 19.8664       16.6148               
   124 r.128                    1000             2               
   125 r.129                   -1000         -1001               
   126 r.130                 2007.79       21.0838               
   127 r.131                       2             2               
   128 r.132                      -2         -1001               
   129 r.133               -0.430589      -999.343               
   130 r.134                    1000             2               
   131 r.135                   -1000         -1001               
   132 r.136                 2007.79      -998.861               
   133 r.137                       2             2               
   134 r.138                      -2         -1001               
   135 r.139                -1.08756       -991.99               
   136 r.140                    1000             2               
   137 r.141                   -1000         -1001               
   138 r.142                    2000      -989.981               
   139 r.143                -990.903      -999.569               
   140 r.144                 21.1755      -999.161               
   141 r.145                -990.903      -999.569               
   142 r.146                 21.1755      -999.161               
   143 r.147                -956.975      -976.841               
   144 r.148                 43.0255      -968.255               
   145 r.149                -969.053      -976.841               
   146 r.150                 30.9474      -968.255               
   147 r.151                 43.0255      -976.998               
   148 r.152                -956.975      -969.053               
   149 r.153                 30.9474      -976.998               
   150 r.154                -969.053      -969.053               
   151 r.155                    1001             2               
   152 r.156                   -1001         -1001               
   153 r.157                 1007.94        16.605               
   154 r.158                    1001             2               
   155 r.159                   -1001         -1001               
   156 r.160                 1992.21       21.1755               
   157 r.161                       2             2               
   158 r.162                      -2         -1001               
   159 r.163                  20.297       16.6148               
   160 r.164                    1000             2               
   161 r.165                   -1000         -1001               
   162 r.166                    2000       21.0838               
   163 r.167                       2             2               
   164 r.168                      -2         -1001               
   165 r.169                0.430589      0.430589               
   166 r.170                    1000             2               
   167 r.171                   -1000         -1001               
   168 r.172                 1992.21      0.839322               
   169 r.173                       2             2               
   170 r.174                      -2         -1001               
   171 r.175               -0.656967       -991.99               
   172 r.176                    1000             2               
   173 r.177                   -1000         -1001               
   174 r.178                 1992.21      -989.981               
   175 r.179                -991.333      -999.343               
   176 r.180                 28.9639      -998.861               
   177 r.181                -991.333      -999.343               
   178 r.182                 28.9639      -998.861               
   179 r.183                -956.544      -976.841               
   180 r.184                  43.456      -968.255               
   181 r.185                -976.841      -976.841               
   182 r.186                  23.159      -968.255               
   183 r.187                    1001             2               
   184 r.188                   -1001         -1001               
   185 r.189                 2043.46      -976.998               
   186 r.190                    1001             2               
   187 r.191                   -1001         -1001               
   188 r.192                 2023.16      -969.053               
   189 r.193                    1001             2               
   190 r.194                   -1001         -1001               
   191 r.195                  1008.6        16.605               
   192 r.196                    1001             2               
   193 r.197                   -1001         -1001               
   194 r.198                    2000       21.1755               
   195 r.199                       2             2               
   196 r.200                      -2         -1001               
   197 r.201                  20.954       16.6148               
   198 r.202                    1000             2               
   199 r.203                   -1000         -1001               
   200 r.204                 2007.79       21.0838               
   201 r.205                       2             2               
   202 r.206                      -2         -1001               
   203 r.207                 1.08756      0.430589               
   204 r.208                    1000             2               
   205 r.209                   -1000         -1001               
   206 r.210                    2000      0.839322               
   207 r.211                       2             2               
   208 r.212                      -2         -1001               
   209 r.213                0.656967      0.656967               
   210 r.214                    1000             2               
   211 r.215                   -1000         -1001               
   212 r.216                 2007.79       1.13857               
   213 r.217                 -991.99       -991.99               
   214 r.218                 21.1755      -989.981               
   215 r.219                 -991.99       -991.99               
   216 r.220                 21.1755      -989.981               
   217 r.221                       2             2               
   218 r.222                      -2         -1001               
   219 r.223                -955.887      -976.841               
   220 r.224                    1000             2               
   221 r.225                   -1000         -1001               
   222 r.226                 2030.95      -968.255               
   223 r.227                  44.113      -976.998               
   224 r.228                -955.887      -969.053               
   225 r.229                 30.9474      -976.998               
   226 r.230                -969.053      -969.053               
   227 r.231                -947.877      -976.841               
   228 r.232                 52.1229      -968.255               
   229 r.233                -947.877      -976.841               
   230 r.234                 52.1229      -968.255               
   231 r.235                       2             2               
   232 r.236                      -2         -1001               
   233 r.237                 955.887       8.00993               
   234 r.238                    1000             2               
   235 r.239                   -1000         -1001               
   236 r.240                 1969.05       10.0193               
   237 r.241                    1001             2               
   238 r.242                   -1001         -1001               
   239 r.243                    2000      -976.998               
   240 r.244                    1001             2               
   241 r.245                   -1001         -1001               
   242 r.246                    2000      -969.053               
   243 r.247                    1001             2               
   244 r.248                   -1001         -1001               
   245 r.249                 1976.84       16.6148               
   246 r.250                    1001             2               
   247 r.251                   -1001         -1001               
   248 r.252                 1976.84       21.0838               
   249 r.253                    1001             2               
   250 r.254                   -1001         -1001               
   251 r.255                 1956.54      0.656967               
   252 r.256                    1001             2               
   253 r.257                   -1001         -1001               
   254 r.258                 1976.84       1.13857               
   255 r.259                    1001             2               
   256 r.260                   -1001         -1001               
   257 r.261                    2000        23.159               
   258 r.262                    1001             2               
   259 r.263                   -1001         -1001               
   260 r.264                    2000       31.7447               

   No. Column name       Activity     Lower bound   Upper bound
------ ------------    ------------- ------------- -------------
     1 tt                     52.431             0               
     2 s_1_1        *              0             0             1 
     3 t_1_1                 1035.52             0               
     4 s_1_8        *              0             0             1 
     5 s_1_7        *              1             0             1 
     6 s_2_1        *              1             0             1 
     7 t_2_1                 30.9474             0               
     8 s_2_8        *              1             0             1 
     9 s_2_7        *              0             0             1 
    10 s_1_2        *              1             0             1 
    11 t_1_2                  23.159             0               
    12 s_2_2        *              0             0             1 
    13 t_2_2                  23.159             0               
    14 s_1_3        *              1             0             1 
    15 t_1_3                 43.0255             0               
    16 s_2_3        *              0             0             1 
    17 t_2_3                 30.9474             0               
    18 s_1_4        *              1             0             1 
    19 t_1_4                  43.456             0               
    20 s_2_4        *              0             0             1 
    21 t_2_4                  23.159             0               
    22 s_1_5        *              1             0             1 
    23 t_1_5                  44.113             0               
    24 s_2_5        *              0             0             1 
    25 t_2_5                 30.9474             0               
    26 s_1_6        *              1             0             1 
    27 t_1_6                 52.1229             0               
    28 s_2_6        *              0             0             1 
    29 t_2_6                 52.1229             0               
    30 t_1_7                       0             0               
    31 t_2_7                       0             0               
    32 t_1_8                       0             0               
    33 t_2_8                       0             0               
    34 r_1_1_2      *              1             0             1 
    35 u_1_1_2      *              0             0             1 
    36 r_2_1_2      *              1             0             1 
    37 u_2_1_2      *              0             0             1 
    38 r_1_1_3      *              1             0             1 
    39 u_1_1_3      *              0             0             1 
    40 r_2_1_3      *              1             0             1 
    41 u_2_1_3      *              0             0             1 
    42 r_1_1_4      *              1             0             1 
    43 u_1_1_4      *              0             0             1 
    44 r_2_1_4      *              1             0             1 
    45 u_2_1_4      *              0             0             1 
    46 r_1_1_5      *              1             0             1 
    47 u_1_1_5      *              0             0             1 
    48 r_2_1_5      *              1             0             1 
    49 u_2_1_5      *              0             0             1 
    50 r_1_2_3      *              0             0             1 
    51 u_1_2_3      *              0             0             1 
    52 r_2_2_3      *              1             0             1 
    53 u_2_2_3      *              0             0             1 
    54 r_1_2_4      *              0             0             1 
    55 u_1_2_4      *              0             0             1 
    56 r_2_2_4      *              1             0             1 
    57 u_2_2_4      *              0             0             1 
    58 r_1_2_5      *              0             0             1 
    59 u_1_2_5      *              0             0             1 
    60 r_2_2_5      *              1             0             1 
    61 u_2_2_5      *              0             0             1 
    62 r_1_2_8      *              1             0             1 
    63 u_1_2_8      *              0             0             1 
    64 r_2_2_8      *              1             0             1 
    65 u_2_2_8      *              0             0             1 
    66 r_1_3_4      *              0             0             1 
    67 u_1_3_4      *              0             0             1 
    68 r_2_3_4      *              1             0             1 
    69 u_2_3_4      *              0             0             1 
    70 r_1_3_5      *              0             0             1 
    71 u_1_3_5      *              0             0             1 
    72 r_2_3_5      *              1             0             1 
    73 u_2_3_5      *              0             0             1 
    74 r_1_4_5      *              0             0             1 
    75 u_1_4_5      *              0             0             1 
    76 r_2_4_5      *              1             0             1 
    77 u_2_4_5      *              0             0             1 
    78 r_1_4_8      *              1             0             1 
    79 u_1_4_8      *              0             0             1 
    80 r_2_4_8      *              1             0             1 
    81 u_2_4_8      *              0             0             1 
    82 r_1_5_7      *              0             0             1 
    83 u_1_5_7      *              1             0             1 
    84 r_2_5_7      *              1             0             1 
    85 u_2_5_7      *              0             0             1 
    86 r_1_7_8      *              1             0             1 
    87 u_1_7_8      *              0             0             1 
    88 r_2_7_8      *              1             0             1 
    89 u_2_7_8      *              0             0             1 

Integer feasibility conditions:

KKT.PE: max.abs.err = 2.27e-13 on row 10
        max.rel.err = 1.09e-16 on row 10
        High quality

KKT.PB: max.abs.err = 1.14e-13 on row 22
        max.rel.err = 1.63e-15 on row 165
        High quality

End of output
